\* Jolt_Problem *\
Maximize
OBJ: 3 x_0 + 2 x_1 + 3 x_10 + 2 x_11 + 2 x_12 + 7 x_13 + 2 x_14 + 3 x_15
 + 2 x_16 + 4 x_17 + 5 x_18 + 3 x_19 + 3 x_2 + x_20 + 2 x_21 + 5 x_22 + 2 x_23
 + 4 x_24 + 3 x_25 + 3 x_26 + 3 x_27 + 4 x_28 + x_29 + 8 x_3 + 5 x_30 + 3 x_31
 + 3 x_32 + 4 x_33 + x_34 + 2 x_35 + x_36 + 3 x_37 + 3 x_38 + 3 x_39 + 2 x_4
 + 4 x_40 + x_41 + 3 x_42 + 4 x_43 + 3 x_44 + 2 x_45 + 3 x_46 + 2 x_47
 + 2 x_48 + 5 x_49 + 3 x_5 + 3 x_50 + 2 x_51 + 2 x_52 + 3 x_53 + 3 x_54
 + 2 x_55 + 4 x_56 + 3 x_57 + 2 x_58 + 6 x_59 + 3 x_6 + 7 x_60 + 3 x_61
 + 2 x_62 + 5 x_63 + 4 x_64 + 4 x_65 + 2 x_66 + 2 x_67 + 3 x_68 + 2 x_69
 + 4 x_7 + 4 x_70 + 3 x_71 + 3 x_72 + 3 x_73 + 3 x_74 + 3 x_75 + 2 x_76
 + 2 x_77 + 4 x_78 + x_79 + 2 x_8 + 4 x_80 + 3 x_81 + 3 x_82 + 8 x_83 + 3 x_84
 + 4 x_85 + 3 x_86 + 6 x_87 + 2 x_88 + 2 x_89 + 2 x_9 + 2 x_90 + 2 x_91
 + 2 x_92 + 3 x_93 + 2 x_94 + 3 x_95 + 3 x_96 + 2 x_97 + 3 x_98 + 3 x_99
Subject To
_C1: x_0 + x_1 + x_10 + x_11 + x_12 + x_13 + x_14 + x_15 + x_16 + x_17 + x_18
 + x_19 + x_2 + x_20 + x_21 + x_22 + x_23 + x_24 + x_25 + x_26 + x_27 + x_28
 + x_29 + x_3 + x_30 + x_31 + x_32 + x_33 + x_34 + x_35 + x_36 + x_37 + x_38
 + x_39 + x_4 + x_40 + x_41 + x_42 + x_43 + x_44 + x_45 + x_46 + x_47 + x_48
 + x_49 + x_5 + x_50 + x_51 + x_52 + x_53 + x_54 + x_55 + x_56 + x_57 + x_58
 + x_59 + x_6 + x_60 + x_61 + x_62 + x_63 + x_64 + x_65 + x_66 + x_67 + x_68
 + x_69 + x_7 + x_70 + x_71 + x_72 + x_73 + x_74 + x_75 + x_76 + x_77 + x_78
 + x_79 + x_8 + x_80 + x_81 + x_82 + x_83 + x_84 + x_85 + x_86 + x_87 + x_88
 + x_89 + x_9 + x_90 + x_91 + x_92 + x_93 + x_94 + x_95 + x_96 + x_97 + x_98
 + x_99 = 12
Binaries
x_0
x_1
x_10
x_11
x_12
x_13
x_14
x_15
x_16
x_17
x_18
x_19
x_2
x_20
x_21
x_22
x_23
x_24
x_25
x_26
x_27
x_28
x_29
x_3
x_30
x_31
x_32
x_33
x_34
x_35
x_36
x_37
x_38
x_39
x_4
x_40
x_41
x_42
x_43
x_44
x_45
x_46
x_47
x_48
x_49
x_5
x_50
x_51
x_52
x_53
x_54
x_55
x_56
x_57
x_58
x_59
x_6
x_60
x_61
x_62
x_63
x_64
x_65
x_66
x_67
x_68
x_69
x_7
x_70
x_71
x_72
x_73
x_74
x_75
x_76
x_77
x_78
x_79
x_8
x_80
x_81
x_82
x_83
x_84
x_85
x_86
x_87
x_88
x_89
x_9
x_90
x_91
x_92
x_93
x_94
x_95
x_96
x_97
x_98
x_99
End
